(set-info :smt-lib-version 2.6)
(set-info :category "crafted")
(set-logic QF_FF)
(define-sort FF0 () (_ FiniteField 52435875175126190479447740508185965837690552500527637822603658699938581184513))
(declare-fun _26_alt () FF0)
(declare-fun _25_alt () FF0)
(declare-fun _10_alt () FF0)
(declare-fun _24_alt () FF0)
(declare-fun _20_alt () FF0)
(declare-fun _23_alt () FF0)
(declare-fun _6_alt () FF0)
(declare-fun _4_alt () FF0)
(declare-fun _22_alt () FF0)
(declare-fun _8_alt () FF0)
(declare-fun _21_alt () FF0)
(declare-fun _7_alt () FF0)
(declare-fun _0_alt () FF0)
(declare-fun _9_alt () FF0)
(declare-fun _19_alt () FF0)
(declare-fun _2_alt () FF0)
(declare-fun _18_alt () FF0)
(declare-fun _1_alt () FF0)
(declare-fun _17_alt () FF0)
(declare-fun _12_alt () FF0)
(declare-fun _16_alt () FF0)
(declare-fun _14_alt () FF0)
(declare-fun _15_alt () FF0)
(declare-fun _3_alt () FF0)
(declare-fun _11_alt () FF0)
(declare-fun _5_alt () FF0)
(declare-fun _26 () FF0)
(declare-fun _25 () FF0)
(declare-fun _10 () FF0)
(declare-fun _24 () FF0)
(declare-fun _20 () FF0)
(declare-fun _23 () FF0)
(declare-fun _6 () FF0)
(declare-fun _4 () FF0)
(declare-fun _22 () FF0)
(declare-fun _8 () FF0)
(declare-fun _21 () FF0)
(declare-fun _7 () FF0)
(declare-fun _0 () FF0)
(declare-fun _9 () FF0)
(declare-fun _19 () FF0)
(declare-fun _2 () FF0)
(declare-fun _18 () FF0)
(declare-fun _1 () FF0)
(declare-fun _17 () FF0)
(declare-fun _12 () FF0)
(declare-fun _16 () FF0)
(declare-fun _14 () FF0)
(declare-fun _15 () FF0)
(declare-fun _3 () FF0)
(declare-fun _11 () FF0)
(declare-fun _5 () FF0)
(declare-fun out_alt () FF0)
(declare-fun out () FF0)
(assert 
  (let ((let0 (as ff52435875175126190479447740508185965837690552500527637822603658699938581184512 FF0)))
  (let ((let1 _26_alt))
  (let ((let2 (ff.mul let1 let0)))
  (let ((let3 _25_alt))
  (let ((let4 _10_alt))
  (let ((let5 (ff.add let4 let3 let2)))
  (let ((let6 (ff.mul let3 let4)))
  (let ((let7 (= let6 let5)))
  (let ((let8 (ff.mul let3 let0)))
  (let ((let9 _24_alt))
  (let ((let10 _20_alt))
  (let ((let11 (ff.add let10 let9 let8)))
  (let ((let12 (ff.mul let9 let10)))
  (let ((let13 (= let12 let11)))
  (let ((let14 (ff.mul let9 let0)))
  (let ((let15 _23_alt))
  (let ((let16 _6_alt))
  (let ((let17 (ff.add let16 let15 let14)))
  (let ((let18 (ff.mul let16 let15)))
  (let ((let19 (= let18 let17)))
  (let ((let20 _4_alt))
  (let ((let21 _22_alt))
  (let ((let22 (ff.mul let21 let20)))
  (let ((let23 (= let22 let15)))
  (let ((let24 _8_alt))
  (let ((let25 _21_alt))
  (let ((let26 (ff.mul let25 let24)))
  (let ((let27 (= let26 let21)))
  (let ((let28 _7_alt))
  (let ((let29 _0_alt))
  (let ((let30 (ff.mul let29 let28)))
  (let ((let31 (= let30 let25)))
  (let ((let32 _9_alt))
  (let ((let33 _19_alt))
  (let ((let34 (ff.mul let33 let32)))
  (let ((let35 (= let34 let10)))
  (let ((let36 _2_alt))
  (let ((let37 _18_alt))
  (let ((let38 (ff.mul let37 let36)))
  (let ((let39 (= let38 let33)))
  (let ((let40 _1_alt))
  (let ((let41 _17_alt))
  (let ((let42 (ff.mul let41 let40)))
  (let ((let43 (= let42 let37)))
  (let ((let44 _12_alt))
  (let ((let45 _16_alt))
  (let ((let46 (ff.mul let45 let44)))
  (let ((let47 (= let46 let41)))
  (let ((let48 _14_alt))
  (let ((let49 _15_alt))
  (let ((let50 (ff.mul let49 let48)))
  (let ((let51 (= let50 let45)))
  (let ((let52 (as ff1 FF0)))
  (let ((let53 (ff.mul let49 let0)))
  (let ((let54 _3_alt))
  (let ((let55 (ff.mul let54 let0)))
  (let ((let56 (ff.add let55 let32 let53 let52)))
  (let ((let57 (ff.add let55 let52)))
  (let ((let58 (ff.mul let57 let32)))
  (let ((let59 (= let58 let56)))
  (let ((let60 (ff.mul let48 let0)))
  (let ((let61 (ff.mul let29 let0)))
  (let ((let62 (ff.add let61 let54 let60 let52)))
  (let ((let63 (ff.add let61 let52)))
  (let ((let64 (ff.mul let63 let54)))
  (let ((let65 (= let64 let62)))
  (let ((let66 _11_alt))
  (let ((let67 (ff.mul let66 let40)))
  (let ((let68 (= let67 let44)))
  (let ((let69 _5_alt))
  (let ((let70 (ff.mul let69 let36)))
  (let ((let71 (= let70 let66)))
  (let ((let72 (ff.mul let4 let0)))
  (let ((let73 (ff.mul let20 let0)))
  (let ((let74 (ff.add let73 let24 let72 let52)))
  (let ((let75 (ff.add let73 let52)))
  (let ((let76 (ff.mul let75 let24)))
  (let ((let77 (= let76 let74)))
  (let ((let78 (ff.mul let32 let32)))
  (let ((let79 (= let78 let32)))
  (let ((let80 (ff.mul let24 let24)))
  (let ((let81 (= let80 let24)))
  (let ((let82 (ff.mul let28 let28)))
  (let ((let83 (= let82 let28)))
  (let ((let84 (ff.mul let16 let16)))
  (let ((let85 (= let84 let16)))
  (let ((let86 (ff.mul let69 let69)))
  (let ((let87 (= let86 let69)))
  (let ((let88 (ff.mul let20 let20)))
  (let ((let89 (= let88 let20)))
  (let ((let90 (ff.mul let54 let54)))
  (let ((let91 (= let90 let54)))
  (let ((let92 (ff.mul let36 let36)))
  (let ((let93 (= let92 let36)))
  (let ((let94 (ff.mul let40 let40)))
  (let ((let95 (= let94 let40)))
  (let ((let96 (ff.mul let29 let29)))
  (let ((let97 (= let96 let29)))
  (let ((let98 (and let97 let95 let93 let91 let89 let87 let85 let83 let81 let79 let77 let71 let68 let65 let59 let51 let47 let43 let39 let35 let31 let27 let23 let19 let13 let7)))
  (let ((let99 _26))
  (let ((let100 (ff.mul let99 let0)))
  (let ((let101 _25))
  (let ((let102 _10))
  (let ((let103 (ff.add let102 let101 let100)))
  (let ((let104 (ff.mul let101 let102)))
  (let ((let105 (= let104 let103)))
  (let ((let106 (ff.mul let101 let0)))
  (let ((let107 _24))
  (let ((let108 _20))
  (let ((let109 (ff.add let108 let107 let106)))
  (let ((let110 (ff.mul let107 let108)))
  (let ((let111 (= let110 let109)))
  (let ((let112 (ff.mul let107 let0)))
  (let ((let113 _23))
  (let ((let114 _6))
  (let ((let115 (ff.add let114 let113 let112)))
  (let ((let116 (ff.mul let114 let113)))
  (let ((let117 (= let116 let115)))
  (let ((let118 _4))
  (let ((let119 _22))
  (let ((let120 (ff.mul let119 let118)))
  (let ((let121 (= let120 let113)))
  (let ((let122 _8))
  (let ((let123 _21))
  (let ((let124 (ff.mul let123 let122)))
  (let ((let125 (= let124 let119)))
  (let ((let126 _7))
  (let ((let127 _0))
  (let ((let128 (ff.mul let127 let126)))
  (let ((let129 (= let128 let123)))
  (let ((let130 _9))
  (let ((let131 _19))
  (let ((let132 (ff.mul let131 let130)))
  (let ((let133 (= let132 let108)))
  (let ((let134 _2))
  (let ((let135 _18))
  (let ((let136 (ff.mul let135 let134)))
  (let ((let137 (= let136 let131)))
  (let ((let138 _1))
  (let ((let139 _17))
  (let ((let140 (ff.mul let139 let138)))
  (let ((let141 (= let140 let135)))
  (let ((let142 _12))
  (let ((let143 _16))
  (let ((let144 (ff.mul let143 let142)))
  (let ((let145 (= let144 let139)))
  (let ((let146 _14))
  (let ((let147 _15))
  (let ((let148 (ff.mul let147 let146)))
  (let ((let149 (= let148 let143)))
  (let ((let150 (ff.mul let147 let0)))
  (let ((let151 _3))
  (let ((let152 (ff.mul let151 let0)))
  (let ((let153 (ff.add let152 let130 let150 let52)))
  (let ((let154 (ff.add let152 let52)))
  (let ((let155 (ff.mul let154 let130)))
  (let ((let156 (= let155 let153)))
  (let ((let157 (ff.mul let146 let0)))
  (let ((let158 (ff.mul let127 let0)))
  (let ((let159 (ff.add let158 let151 let157 let52)))
  (let ((let160 (ff.add let158 let52)))
  (let ((let161 (ff.mul let160 let151)))
  (let ((let162 (= let161 let159)))
  (let ((let163 _11))
  (let ((let164 (ff.mul let163 let138)))
  (let ((let165 (= let164 let142)))
  (let ((let166 _5))
  (let ((let167 (ff.mul let166 let134)))
  (let ((let168 (= let167 let163)))
  (let ((let169 (ff.mul let102 let0)))
  (let ((let170 (ff.mul let118 let0)))
  (let ((let171 (ff.add let170 let122 let169 let52)))
  (let ((let172 (ff.add let170 let52)))
  (let ((let173 (ff.mul let172 let122)))
  (let ((let174 (= let173 let171)))
  (let ((let175 (ff.mul let130 let130)))
  (let ((let176 (= let175 let130)))
  (let ((let177 (ff.mul let122 let122)))
  (let ((let178 (= let177 let122)))
  (let ((let179 (ff.mul let126 let126)))
  (let ((let180 (= let179 let126)))
  (let ((let181 (ff.mul let114 let114)))
  (let ((let182 (= let181 let114)))
  (let ((let183 (ff.mul let166 let166)))
  (let ((let184 (= let183 let166)))
  (let ((let185 (ff.mul let118 let118)))
  (let ((let186 (= let185 let118)))
  (let ((let187 (ff.mul let151 let151)))
  (let ((let188 (= let187 let151)))
  (let ((let189 (ff.mul let134 let134)))
  (let ((let190 (= let189 let134)))
  (let ((let191 (ff.mul let138 let138)))
  (let ((let192 (= let191 let138)))
  (let ((let193 (ff.mul let127 let127)))
  (let ((let194 (= let193 let127)))
  (let ((let195 (and let194 let192 let190 let188 let186 let184 let182 let180 let178 let176 let174 let168 let165 let162 let156 let149 let145 let141 let137 let133 let129 let125 let121 let117 let111 let105)))
  (let ((let196 out_alt))
  (let ((let197 out))
  (let ((let198 (= let197 let196)))
  (let ((let199 (not let198)))
  (let ((let200 (= let126 let28)))
  (let ((let201 (= let114 let16)))
  (let ((let202 (= let127 let29)))
  (let ((let203 (= let166 let69)))
  (let ((let204 (= let134 let36)))
  (let ((let205 (= let138 let40)))
  (let ((let206 (= let130 let32)))
  (let ((let207 (= let122 let24)))
  (let ((let208 (= let118 let20)))
  (let ((let209 (= let151 let54)))
  (let ((let210 (and let209 let208 let207 let206 let205 let204 let203 let202 let201 let200)))
  (let ((let211 (and let210 let199 let195 let98)))
  let211
))))))))))))))))))))))))))))))))))))))))))))))))))))))))))))))))))))))))))))))))))))))))))))))))))))))))))))))))))))))))))))))))))))))))))))))))))))))))))))))))))))))))))))))))))))))))))))))))))))))))))))))))))))
)
(check-sat)
